DIMACS_lns/graph-1000-979.col
p edge 1000 1849
e 1 602
e 1 840
e 1 725
e 1 780
e 1 909
e 1 501
e 1 861
e 1 356
e 2 471
e 2 554
e 2 342
e 4 455
e 4 877
e 4 244
e 4 630
e 5 958
e 5 575
e 5 217
e 6 191
e 6 485
e 6 170
e 6 706
e 6 163
e 10 881
e 10 484
e 10 954
e 10 566
e 10 952
e 10 948
e 10 162
e 12 186
e 12 786
e 12 221
e 12 36
e 12 724
e 12 420
e 13 859
e 13 27
e 13 258
e 13 51
e 14 797
e 14 114
e 14 859
e 14 717
e 14 190
e 15 506
e 15 457
e 15 382
e 16 158
e 16 522
e 16 221
e 16 816
e 16 409
e 16 233
e 16 525
e 19 614
e 19 203
e 19 632
e 19 420
e 19 770
e 20 369
e 20 785
e 20 794
e 20 278
e 20 930
e 20 688
e 20 632
e 20 377
e 21 256
e 21 287
e 21 550
e 22 635
e 22 466
e 22 775
e 22 525
e 22 339
e 22 873
e 23 727
e 23 421
e 23 514
e 23 304
e 23 324
e 24 590
e 24 141
e 24 795
e 24 211
e 25 173
e 25 561
e 25 278
e 25 935
e 26 982
e 26 953
e 26 553
e 26 158
e 27 389
e 27 900
e 27 745
e 28 91
e 28 998
e 28 930
e 30 190
e 30 832
e 30 289
e 30 619
e 30 653
e 30 767
e 30 863
e 30 162
e 31 243
e 31 482
e 31 103
e 32 931
e 32 67
e 32 568
e 32 431
e 33 608
e 33 280
e 33 911
e 33 859
e 33 388
e 33 340
e 33 632
e 33 110
e 36 184
e 36 691
e 36 731
e 36 676
e 37 524
e 37 729
e 37 619
e 38 255
e 38 135
e 38 349
e 38 532
e 38 646
e 39 610
e 39 95
e 39 754
e 39 195
e 39 507
e 39 303
e 39 891
e 41 552
e 41 364
e 41 441
e 42 742
e 42 517
e 42 78
e 42 728
e 42 498
e 42 419
e 42 320
e 42 486
e 43 228
e 43 263
e 43 707
e 43 322
e 44 276
e 44 259
e 44 740
e 44 652
e 44 464
e 44 637
e 45 254
e 45 924
e 45 226
e 45 625
e 46 154
e 46 286
e 46 821
e 47 88
e 47 49
e 47 144
e 47 687
e 47 870
e 47 446
e 47 384
e 47 902
e 47 664
e 49 324
e 49 898
e 49 949
e 49 405
e 49 871
e 49 734
e 50 673
e 50 733
e 50 567
e 51 783
e 51 235
e 51 170
e 52 392
e 52 412
e 52 740
e 52 993
e 52 997
e 52 527
e 53 989
e 53 418
e 53 497
e 56 62
e 56 650
e 56 653
e 56 804
e 56 798
e 57 231
e 57 686
e 57 587
e 57 297
e 57 455
e 57 597
e 58 989
e 58 762
e 58 387
e 58 986
e 58 73
e 59 820
e 59 91
e 59 281
e 59 986
e 59 761
e 59 972
e 59 135
e 62 749
e 62 997
e 63 160
e 63 464
e 63 342
e 64 89
e 64 832
e 64 754
e 64 552
e 65 546
e 65 994
e 65 903
e 65 924
e 66 140
e 66 658
e 66 144
e 66 609
e 67 127
e 67 727
e 67 500
e 67 328
e 68 953
e 68 584
e 68 234
e 68 579
e 68 197
e 68 367
e 68 896
e 68 587
e 69 151
e 69 607
e 69 969
e 71 703
e 71 755
e 71 674
e 72 576
e 72 364
e 72 320
e 72 474
e 73 784
e 73 418
e 73 453
e 73 111
e 75 778
e 75 353
e 75 618
e 75 87
e 75 942
e 75 369
e 76 687
e 76 167
e 76 902
e 78 331
e 78 809
e 78 990
e 81 856
e 81 577
e 81 677
e 81 492
e 82 368
e 82 264
e 82 172
e 82 485
e 83 940
e 83 207
e 83 738
e 83 882
e 84 972
e 84 138
e 84 948
e 85 580
e 85 750
e 85 482
e 85 746
e 85 227
e 86 492
e 86 384
e 86 320
e 87 897
e 87 736
e 88 884
e 88 702
e 88 652
e 89 539
e 89 386
e 89 948
e 89 677
e 90 773
e 90 984
e 90 787
e 90 355
e 90 681
e 91 653
e 91 670
e 91 694
e 92 249
e 92 810
e 92 322
e 92 139
e 92 429
e 93 538
e 93 356
e 93 570
e 93 328
e 93 995
e 94 576
e 94 888
e 94 158
e 94 143
e 94 120
e 95 963
e 95 307
e 95 981
e 95 290
e 95 434
e 95 422
e 99 261
e 99 987
e 99 356
e 99 528
e 99 158
e 100 280
e 100 566
e 100 990
e 100 118
e 102 207
e 102 258
e 102 399
e 102 878
e 102 559
e 102 688
e 102 896
e 102 555
e 103 914
e 103 273
e 103 900
e 103 586
e 103 538
e 103 499
e 103 363
e 103 557
e 103 650
e 103 457
e 104 607
e 104 474
e 104 549
e 104 162
e 104 490
e 104 742
e 105 554
e 105 777
e 105 964
e 105 731
e 105 421
e 105 855
e 105 227
e 108 692
e 108 882
e 108 807
e 109 331
e 109 251
e 109 944
e 110 142
e 110 528
e 111 322
e 111 760
e 111 207
e 111 114
e 111 419
e 112 867
e 112 256
e 112 574
e 112 727
e 112 447
e 114 209
e 114 471
e 114 361
e 114 798
e 115 413
e 115 932
e 115 182
e 115 494
e 115 577
e 116 952
e 116 782
e 116 517
e 118 617
e 118 935
e 119 766
e 119 458
e 119 893
e 119 293
e 120 928
e 120 716
e 120 668
e 120 585
e 120 335
e 120 916
e 120 943
e 121 461
e 121 842
e 121 486
e 121 676
e 121 822
e 121 324
e 122 632
e 122 957
e 122 521
e 122 381
e 122 649
e 122 810
e 123 453
e 123 490
e 123 637
e 124 415
e 124 862
e 124 813
e 124 515
e 126 837
e 126 482
e 126 948
e 126 461
e 126 546
e 126 684
e 126 964
e 127 209
e 127 870
e 127 133
e 128 962
e 128 738
e 128 689
e 128 484
e 128 217
e 129 387
e 129 546
e 129 991
e 129 148
e 129 211
e 132 881
e 132 568
e 132 370
e 133 668
e 133 459
e 133 198
e 134 933
e 134 389
e 134 839
e 134 283
e 134 256
e 135 846
e 135 455
e 135 148
e 135 391
e 135 250
e 137 455
e 137 670
e 137 809
e 137 666
e 137 972
e 138 171
e 138 168
e 138 410
e 138 317
e 138 233
e 139 332
e 139 627
e 139 639
e 139 616
e 139 234
e 139 979
e 139 896
e 139 276
e 140 911
e 140 822
e 140 264
e 140 943
e 141 591
e 141 975
e 141 319
e 141 232
e 141 539
e 141 603
e 141 454
e 142 268
e 142 560
e 142 984
e 142 723
e 143 487
e 143 820
e 144 431
e 144 741
e 144 627
e 148 221
e 148 789
e 149 293
e 149 625
e 149 670
e 149 277
e 149 911
e 150 847
e 150 570
e 150 566
e 150 351
e 151 942
e 151 861
e 151 668
e 153 873
e 153 388
e 153 289
e 153 263
e 153 762
e 153 950
e 154 405
e 154 458
e 154 208
e 155 973
e 155 951
e 155 741
e 155 984
e 155 672
e 155 855
e 156 711
e 156 706
e 156 663
e 156 957
e 158 884
e 158 290
e 158 804
e 158 226
e 158 953
e 159 684
e 159 681
e 159 284
e 159 521
e 159 418
e 159 405
e 160 193
e 160 632
e 160 992
e 160 517
e 160 320
e 161 599
e 161 763
e 161 786
e 161 770
e 161 510
e 161 372
e 162 610
e 162 841
e 162 279
e 162 611
e 162 337
e 163 597
e 163 255
e 165 767
e 165 854
e 165 810
e 167 971
e 167 746
e 167 776
e 168 649
e 168 619
e 169 969
e 169 561
e 169 290
e 169 569
e 169 916
e 169 265
e 170 982
e 170 497
e 170 364
e 170 235
e 170 761
e 170 733
e 170 915
e 171 598
e 171 425
e 171 926
e 172 174
e 172 464
e 172 273
e 172 739
e 173 632
e 173 540
e 173 356
e 174 502
e 174 591
e 174 589
e 174 969
e 174 345
e 174 680
e 174 193
e 175 811
e 175 486
e 175 365
e 175 822
e 175 249
e 179 863
e 179 841
e 179 319
e 179 386
e 179 589
e 179 779
e 180 1000
e 180 236
e 180 672
e 181 566
e 181 899
e 181 688
e 181 253
e 181 421
e 181 259
e 182 666
e 182 855
e 184 383
e 184 501
e 184 324
e 184 716
e 184 829
e 184 818
e 185 390
e 185 806
e 185 705
e 186 330
e 186 807
e 186 882
e 187 794
e 187 637
e 187 211
e 189 464
e 189 565
e 189 204
e 189 979
e 189 958
e 190 941
e 190 856
e 190 455
e 190 875
e 190 217
e 191 384
e 191 898
e 192 565
e 192 329
e 192 844
e 192 248
e 192 813
e 192 845
e 193 438
e 193 903
e 193 292
e 193 908
e 194 952
e 194 692
e 194 434
e 194 954
e 194 356
e 194 533
e 195 215
e 195 461
e 195 379
e 195 826
e 195 269
e 195 453
e 195 841
e 197 854
e 197 339
e 197 1000
e 197 777
e 198 798
e 198 969
e 200 207
e 200 423
e 200 447
e 201 579
e 201 433
e 201 783
e 202 525
e 202 575
e 202 606
e 202 914
e 203 737
e 203 997
e 204 260
e 204 313
e 204 811
e 204 595
e 204 298
e 205 726
e 205 938
e 205 243
e 205 763
e 205 328
e 205 717
e 205 672
e 207 783
e 208 418
e 208 893
e 208 448
e 208 918
e 209 787
e 209 829
e 209 230
e 209 266
e 209 337
e 209 370
e 209 818
e 210 709
e 210 370
e 210 899
e 210 905
e 210 886
e 211 278
e 214 821
e 214 758
e 214 904
e 214 713
e 215 258
e 215 420
e 215 498
e 215 251
e 216 322
e 216 895
e 216 829
e 216 343
e 216 391
e 217 712
e 218 227
e 218 252
e 218 926
e 218 458
e 218 790
e 218 965
e 218 493
e 218 671
e 219 906
e 219 951
e 219 304
e 219 308
e 219 301
e 219 298
e 219 515
e 220 376
e 220 602
e 220 427
e 220 569
e 220 429
e 221 285
e 221 336
e 221 854
e 222 578
e 222 639
e 222 942
e 222 807
e 222 487
e 222 628
e 226 228
e 226 952
e 227 782
e 227 508
e 228 518
e 230 338
e 230 599
e 231 427
e 231 288
e 232 493
e 232 588
e 232 517
e 233 635
e 234 642
e 234 806
e 235 598
e 235 975
e 236 767
e 236 951
e 236 360
e 236 353
e 238 849
e 238 945
e 238 605
e 239 339
e 239 622
e 239 906
e 243 978
e 243 485
e 244 429
e 244 331
e 244 829
e 244 319
e 244 993
e 247 867
e 247 472
e 247 601
e 248 384
e 248 367
e 249 517
e 249 421
e 249 354
e 249 839
e 250 930
e 250 634
e 251 431
e 251 653
e 252 878
e 252 969
e 252 816
e 252 641
e 253 299
e 253 289
e 253 524
e 254 514
e 254 842
e 254 601
e 255 410
e 255 557
e 257 389
e 257 686
e 257 664
e 258 358
e 259 339
e 259 409
e 259 671
e 259 385
e 260 908
e 260 933
e 260 370
e 261 975
e 261 498
e 261 934
e 262 273
e 262 551
e 262 980
e 262 479
e 262 619
e 262 648
e 263 571
e 263 713
e 264 590
e 264 581
e 264 447
e 265 919
e 265 820
e 265 696
e 266 620
e 266 446
e 268 677
e 268 579
e 268 385
e 269 939
e 269 788
e 273 321
e 273 583
e 273 480
e 274 688
e 274 701
e 274 395
e 274 608
e 276 762
e 276 341
e 276 737
e 277 862
e 277 488
e 277 449
e 278 705
e 278 749
e 278 346
e 278 950
e 278 973
e 279 820
e 279 819
e 279 990
e 280 681
e 280 811
e 280 598
e 280 840
e 280 590
e 280 964
e 280 394
e 281 625
e 281 420
e 281 369
e 281 633
e 283 538
e 283 527
e 283 365
e 283 896
e 284 438
e 284 403
e 285 480
e 285 504
e 286 986
e 286 977
e 286 337
e 286 668
e 287 998
e 287 333
e 288 294
e 288 615
e 288 898
e 289 853
e 289 472
e 289 644
e 290 785
e 290 303
e 291 499
e 291 449
e 291 686
e 292 780
e 292 566
e 292 872
e 293 893
e 293 794
e 293 523
e 293 844
e 294 482
e 294 896
e 294 978
e 294 959
e 294 473
e 295 650
e 295 706
e 295 805
e 295 846
e 296 308
e 296 915
e 296 437
e 296 707
e 297 912
e 297 466
e 298 703
e 298 927
e 298 616
e 298 631
e 299 415
e 299 421
e 301 361
e 301 527
e 301 395
e 301 563
e 301 778
e 301 504
e 303 754
e 303 423
e 303 726
e 304 505
e 304 514
e 304 473
e 307 995
e 307 421
e 307 682
e 307 648
e 308 442
e 308 805
e 308 649
e 308 599
e 310 351
e 310 779
e 310 379
e 310 648
e 310 942
e 310 580
e 313 684
e 313 741
e 313 445
e 313 532
e 317 625
e 317 630
e 319 608
e 319 328
e 319 487
e 320 991
e 320 328
e 321 563
e 321 977
e 321 632
e 321 358
e 321 452
e 322 456
e 322 631
e 322 902
e 322 410
e 322 433
e 322 990
e 324 837
e 324 584
e 324 492
e 324 750
e 327 839
e 327 830
e 327 750
e 328 751
e 328 642
e 328 383
e 329 332
e 329 422
e 330 609
e 330 819
e 330 486
e 332 613
e 333 886
e 333 813
e 333 830
e 335 938
e 335 674
e 336 811
e 336 854
e 337 938
e 337 459
e 338 664
e 338 945
e 338 737
e 340 862
e 340 768
e 340 656
e 341 521
e 341 389
e 341 599
e 341 986
e 342 757
e 343 471
e 343 991
e 343 412
e 345 628
e 345 789
e 345 830
e 345 634
e 346 585
e 346 967
e 346 563
e 346 548
e 346 564
e 346 963
e 348 396
e 348 478
e 348 525
e 349 997
e 349 649
e 349 639
e 351 441
e 351 670
e 351 904
e 353 429
e 353 662
e 353 731
e 353 503
e 354 991
e 354 443
e 355 897
e 355 793
e 355 572
e 356 878
e 356 718
e 356 649
e 356 692
e 358 496
e 358 656
e 360 499
e 360 429
e 360 548
e 360 538
e 360 363
e 360 423
e 360 800
e 360 868
e 360 793
e 361 497
e 361 510
e 361 437
e 363 608
e 363 618
e 364 548
e 364 585
e 364 987
e 364 663
e 365 755
e 365 373
e 365 820
e 365 714
e 367 797
e 367 864
e 367 742
e 368 852
e 368 733
e 368 658
e 368 641
e 369 412
e 369 423
e 369 514
e 369 712
e 370 980
e 370 560
e 370 757
e 370 784
e 372 853
e 372 435
e 372 784
e 372 694
e 372 512
e 372 700
e 373 441
e 373 382
e 373 944
e 373 602
e 373 911
e 375 904
e 375 630
e 375 768
e 375 620
e 376 706
e 376 674
e 377 596
e 377 614
e 377 849
e 379 532
e 379 587
e 379 478
e 380 632
e 380 392
e 380 749
e 381 477
e 381 770
e 381 656
e 381 820
e 381 632
e 382 570
e 383 689
e 383 558
e 383 856
e 384 668
e 384 712
e 384 502
e 384 859
e 385 433
e 385 858
e 386 803
e 386 862
e 387 885
e 387 388
e 387 527
e 388 873
e 388 563
e 388 392
e 389 598
e 389 443
e 389 410
e 389 426
e 390 719
e 390 792
e 390 855
e 390 928
e 391 964
e 391 962
e 391 916
e 391 905
e 392 829
e 392 933
e 393 935
e 393 533
e 393 915
e 393 997
e 393 833
e 394 595
e 394 928
e 395 901
e 396 704
e 396 877
e 396 652
e 396 633
e 397 555
e 397 603
e 397 939
e 397 918
e 397 758
e 397 923
e 399 721
e 399 854
e 403 611
e 403 966
e 403 844
e 403 928
e 403 469
e 403 766
e 404 998
e 404 896
e 404 596
e 406 919
e 406 407
e 406 505
e 407 680
e 407 639
e 407 609
e 409 788
e 409 723
e 411 506
e 411 838
e 411 693
e 412 673
e 412 798
e 413 761
e 413 665
e 413 493
e 413 821
e 414 456
e 414 762
e 414 701
e 414 743
e 414 977
e 414 725
e 414 652
e 415 547
e 416 691
e 416 826
e 416 502
e 416 473
e 418 673
e 418 684
e 419 597
e 420 702
e 420 888
e 420 864
e 421 666
e 421 636
e 422 762
e 423 805
e 423 432
e 424 749
e 424 738
e 424 688
e 424 471
e 425 878
e 425 954
e 425 799
e 426 684
e 426 694
e 426 715
e 427 784
e 427 849
e 427 469
e 429 837
e 429 480
e 431 563
e 431 717
e 432 712
e 432 463
e 432 583
e 433 813
e 433 971
e 433 752
e 433 719
e 434 972
e 434 975
e 434 606
e 434 932
e 435 903
e 435 847
e 437 944
e 438 899
e 440 971
e 440 949
e 440 481
e 441 771
e 441 644
e 441 972
e 442 872
e 442 560
e 442 941
e 443 994
e 443 479
e 443 844
e 443 676
e 443 450
e 443 790
e 443 502
e 444 849
e 444 838
e 444 820
e 444 997
e 444 636
e 445 575
e 445 758
e 445 484
e 446 586
e 446 745
e 447 992
e 447 904
e 448 563
e 448 614
e 448 825
e 448 831
e 448 714
e 448 873
e 449 756
e 449 664
e 449 783
e 450 604
e 450 871
e 452 849
e 452 998
e 453 531
e 453 481
e 453 454
e 453 570
e 453 664
e 454 803
e 454 540
e 455 964
e 455 691
e 456 940
e 456 966
e 457 832
e 457 787
e 459 940
e 459 497
e 461 746
e 461 723
e 461 745
e 461 776
e 463 480
e 463 583
e 463 939
e 463 613
e 464 821
e 464 791
e 464 949
e 464 771
e 466 578
e 466 700
e 466 836
e 466 680
e 469 689
e 469 622
e 471 564
e 471 818
e 472 864
e 473 825
e 473 677
e 473 665
e 474 756
e 474 540
e 474 914
e 475 718
e 475 546
e 475 924
e 475 940
e 477 684
e 477 682
e 478 959
e 478 662
e 478 726
e 479 717
e 479 856
e 479 822
e 480 494
e 480 547
e 481 723
e 481 833
e 482 787
e 482 887
e 482 721
e 484 595
e 484 654
e 484 505
e 484 934
e 484 981
e 485 517
e 485 750
e 486 926
e 486 826
e 486 719
e 486 956
e 487 505
e 488 771
e 488 935
e 490 887
e 490 601
e 494 495
e 494 666
e 495 504
e 495 952
e 495 561
e 496 667
e 496 900
e 496 793
e 497 569
e 497 868
e 498 619
e 499 821
e 499 632
e 499 822
e 500 884
e 500 958
e 500 855
e 500 525
e 501 975
e 501 872
e 501 932
e 502 604
e 503 768
e 503 965
e 503 616
e 503 786
e 503 761
e 504 870
e 505 703
e 506 882
e 506 755
e 506 585
e 507 754
e 507 945
e 507 579
e 508 982
e 508 549
e 510 749
e 510 783
e 510 868
e 512 833
e 512 893
e 512 804
e 514 878
e 515 533
e 517 633
e 517 762
e 517 914
e 517 554
e 518 532
e 518 611
e 518 909
e 518 780
e 521 696
e 522 934
e 522 721
e 522 818
e 523 776
e 523 727
e 523 844
e 524 919
e 524 707
e 524 767
e 527 798
e 527 886
e 527 713
e 528 569
e 528 936
e 531 635
e 531 966
e 532 872
e 533 956
e 533 551
e 538 830
e 538 786
e 538 712
e 538 823
e 539 847
e 540 786
e 540 589
e 540 567
e 540 673
e 546 928
e 547 892
e 547 667
e 547 965
e 548 648
e 548 900
e 549 839
e 549 826
e 549 825
e 549 944
e 550 680
e 550 775
e 551 908
e 551 681
e 552 919
e 552 625
e 553 620
e 553 893
e 554 955
e 554 938
e 554 807
e 555 616
e 555 596
e 556 931
e 556 667
e 556 969
e 557 828
e 558 608
e 558 901
e 559 673
e 559 975
e 559 950
e 560 878
e 560 603
e 561 909
e 561 667
e 563 928
e 563 973
e 564 875
e 564 976
e 565 938
e 566 789
e 566 838
e 567 994
e 567 766
e 568 617
e 569 664
e 569 674
e 570 790
e 571 931
e 571 618
e 572 579
e 572 858
e 572 816
e 574 729
e 574 773
e 575 976
e 575 734
e 575 864
e 575 908
e 576 646
e 576 590
e 577 693
e 577 752
e 577 965
e 577 776
e 578 778
e 578 998
e 578 772
e 579 853
e 580 720
e 581 836
e 581 804
e 581 987
e 583 633
e 583 823
e 584 967
e 584 610
e 585 677
e 586 756
e 586 916
e 586 743
e 586 667
e 587 726
e 588 868
e 588 895
e 590 792
e 590 846
e 591 797
e 595 616
e 595 979
e 596 604
e 596 846
e 598 717
e 599 999
e 599 854
e 601 709
e 602 762
e 603 864
e 603 956
e 604 938
e 604 757
e 605 706
e 605 607
e 605 702
e 606 1000
e 606 750
e 606 726
e 606 811
e 607 663
e 607 893
e 608 799
e 608 887
e 608 971
e 610 715
e 610 693
e 611 897
e 611 892
e 613 878
e 613 755
e 614 806
e 614 905
e 615 945
e 615 793
e 616 736
e 616 839
e 617 799
e 620 840
e 622 914
e 622 936
e 627 905
e 628 674
e 630 720
e 631 740
e 631 878
e 631 728
e 632 849
e 632 650
e 632 1000
e 633 746
e 633 965
e 634 987
e 634 766
e 635 840
e 635 908
e 636 853
e 636 809
e 636 841
e 637 642
e 638 762
e 638 999
e 638 752
e 638 897
e 638 831
e 641 682
e 644 816
e 646 980
e 648 671
e 648 941
e 649 768
e 649 696
e 649 992
e 650 664
e 652 864
e 652 903
e 653 782
e 653 763
e 654 772
e 654 882
e 656 723
e 656 707
e 658 906
e 658 664
e 658 706
e 658 716
e 658 965
e 662 757
e 662 811
e 662 955
e 663 842
e 663 939
e 664 847
e 664 852
e 665 924
e 665 726
e 665 754
e 666 704
e 666 745
e 666 680
e 667 758
e 668 762
e 668 685
e 670 885
e 671 776
e 671 971
e 672 734
e 673 805
e 676 818
e 677 731
e 680 749
e 682 911
e 685 760
e 685 945
e 685 693
e 686 872
e 686 881
e 687 833
e 689 786
e 689 770
e 691 888
e 692 757
e 693 989
e 693 990
e 696 792
e 700 891
e 701 734
e 701 702
e 701 758
e 702 816
e 702 837
e 702 895
e 703 768
e 703 731
e 704 936
e 704 845
e 705 782
e 705 721
e 706 791
e 709 792
e 711 991
e 711 794
e 711 746
e 714 995
e 715 941
e 716 867
e 716 930
e 718 856
e 718 752
e 719 872
e 720 973
e 723 767
e 724 798
e 724 772
e 725 952
e 726 901
e 726 755
e 727 990
e 727 927
e 728 825
e 728 831
e 729 930
e 731 760
e 734 786
e 734 881
e 736 743
e 739 779
e 739 976
e 740 892
e 740 863
e 740 918
e 741 842
e 742 864
e 742 990
e 743 828
e 745 987
e 746 829
e 746 975
e 750 882
e 750 991
e 751 966
e 751 756
e 752 964
e 754 875
e 757 943
e 758 785
e 760 960
e 760 912
e 766 771
e 767 805
e 767 861
e 771 878
e 771 882
e 772 811
e 772 803
e 773 999
e 775 823
e 776 975
e 776 823
e 777 908
e 777 875
e 778 829
e 779 785
e 779 807
e 779 845
e 780 877
e 780 872
e 782 903
e 785 873
e 786 978
e 787 957
e 788 842
e 790 803
e 790 873
e 791 795
e 792 891
e 793 903
e 795 893
e 795 867
e 799 800
e 800 960
e 803 960
e 804 918
e 804 844
e 805 973
e 807 832
e 807 958
e 807 982
e 809 956
e 811 833
e 811 977
e 811 975
e 819 893
e 821 892
e 823 838
e 825 928
e 828 980
e 832 945
e 832 953
e 833 933
e 836 911
e 838 905
e 841 962
e 841 939
e 844 893
e 846 875
e 852 896
e 854 882
e 856 993
e 858 978
e 868 927
e 871 927
e 872 935
e 873 989
e 882 885
e 886 1000
e 893 971
e 898 1000
e 901 987
e 902 912
e 903 963
e 909 923
e 909 979
e 911 992
e 911 978
e 912 982
e 914 987
e 918 958
e 918 960
e 923 963
e 924 971
e 939 975
e 939 966
e 945 987
e 951 956
e 954 981
e 955 978
e 957 977
e 959 989
e 966 972
e 967 977
