txt_Ins/graph-1000-979.txt
n 1000
e 0 601
e 0 839
e 0 724
e 0 779
e 0 908
e 0 500
e 0 860
e 0 355
e 1 470
e 1 553
e 1 341
e 3 454
e 3 876
e 3 243
e 3 629
e 4 957
e 4 574
e 4 216
e 5 190
e 5 484
e 5 169
e 5 705
e 5 162
e 9 880
e 9 483
e 9 953
e 9 565
e 9 951
e 9 947
e 9 161
e 11 185
e 11 785
e 11 220
e 11 35
e 11 723
e 11 419
e 12 858
e 12 26
e 12 257
e 12 50
e 13 796
e 13 113
e 13 858
e 13 716
e 13 189
e 14 505
e 14 456
e 14 381
e 15 157
e 15 521
e 15 220
e 15 815
e 15 408
e 15 232
e 15 524
e 18 613
e 18 202
e 18 631
e 18 419
e 18 769
e 19 368
e 19 784
e 19 793
e 19 277
e 19 929
e 19 687
e 19 631
e 19 376
e 20 255
e 20 286
e 20 549
e 21 634
e 21 465
e 21 774
e 21 524
e 21 338
e 21 872
e 22 726
e 22 420
e 22 513
e 22 303
e 22 323
e 23 589
e 23 140
e 23 794
e 23 210
e 24 172
e 24 560
e 24 277
e 24 934
e 25 981
e 25 952
e 25 552
e 25 157
e 26 388
e 26 899
e 26 744
e 27 90
e 27 997
e 27 929
e 29 189
e 29 831
e 29 288
e 29 618
e 29 652
e 29 766
e 29 862
e 29 161
e 30 242
e 30 481
e 30 102
e 31 930
e 31 66
e 31 567
e 31 430
e 32 607
e 32 279
e 32 910
e 32 858
e 32 387
e 32 339
e 32 631
e 32 109
e 35 183
e 35 690
e 35 730
e 35 675
e 36 523
e 36 728
e 36 618
e 37 254
e 37 134
e 37 348
e 37 531
e 37 645
e 38 609
e 38 94
e 38 753
e 38 194
e 38 506
e 38 302
e 38 890
e 40 551
e 40 363
e 40 440
e 41 741
e 41 516
e 41 77
e 41 727
e 41 497
e 41 418
e 41 319
e 41 485
e 42 227
e 42 262
e 42 706
e 42 321
e 43 275
e 43 258
e 43 739
e 43 651
e 43 463
e 43 636
e 44 253
e 44 923
e 44 225
e 44 624
e 45 153
e 45 285
e 45 820
e 46 87
e 46 48
e 46 143
e 46 686
e 46 869
e 46 445
e 46 383
e 46 901
e 46 663
e 48 323
e 48 897
e 48 948
e 48 404
e 48 870
e 48 733
e 49 672
e 49 732
e 49 566
e 50 782
e 50 234
e 50 169
e 51 391
e 51 411
e 51 739
e 51 992
e 51 996
e 51 526
e 52 988
e 52 417
e 52 496
e 55 61
e 55 649
e 55 652
e 55 803
e 55 797
e 56 230
e 56 685
e 56 586
e 56 296
e 56 454
e 56 596
e 57 988
e 57 761
e 57 386
e 57 985
e 57 72
e 58 819
e 58 90
e 58 280
e 58 985
e 58 760
e 58 971
e 58 134
e 61 748
e 61 996
e 62 159
e 62 463
e 62 341
e 63 88
e 63 831
e 63 753
e 63 551
e 64 545
e 64 993
e 64 902
e 64 923
e 65 139
e 65 657
e 65 143
e 65 608
e 66 126
e 66 726
e 66 499
e 66 327
e 67 952
e 67 583
e 67 233
e 67 578
e 67 196
e 67 366
e 67 895
e 67 586
e 68 150
e 68 606
e 68 968
e 70 702
e 70 754
e 70 673
e 71 575
e 71 363
e 71 319
e 71 473
e 72 783
e 72 417
e 72 452
e 72 110
e 74 777
e 74 352
e 74 617
e 74 86
e 74 941
e 74 368
e 75 686
e 75 166
e 75 901
e 77 330
e 77 808
e 77 989
e 80 855
e 80 576
e 80 676
e 80 491
e 81 367
e 81 263
e 81 171
e 81 484
e 82 939
e 82 206
e 82 737
e 82 881
e 83 971
e 83 137
e 83 947
e 84 579
e 84 749
e 84 481
e 84 745
e 84 226
e 85 491
e 85 383
e 85 319
e 86 896
e 86 735
e 87 883
e 87 701
e 87 651
e 88 538
e 88 385
e 88 947
e 88 676
e 89 772
e 89 983
e 89 786
e 89 354
e 89 680
e 90 652
e 90 669
e 90 693
e 91 248
e 91 809
e 91 321
e 91 138
e 91 428
e 92 537
e 92 355
e 92 569
e 92 327
e 92 994
e 93 575
e 93 887
e 93 157
e 93 142
e 93 119
e 94 962
e 94 306
e 94 980
e 94 289
e 94 433
e 94 421
e 98 260
e 98 986
e 98 355
e 98 527
e 98 157
e 99 279
e 99 565
e 99 989
e 99 117
e 101 206
e 101 257
e 101 398
e 101 877
e 101 558
e 101 687
e 101 895
e 101 554
e 102 913
e 102 272
e 102 899
e 102 585
e 102 537
e 102 498
e 102 362
e 102 556
e 102 649
e 102 456
e 103 606
e 103 473
e 103 548
e 103 161
e 103 489
e 103 741
e 104 553
e 104 776
e 104 963
e 104 730
e 104 420
e 104 854
e 104 226
e 107 691
e 107 881
e 107 806
e 108 330
e 108 250
e 108 943
e 109 141
e 109 527
e 110 321
e 110 759
e 110 206
e 110 113
e 110 418
e 111 866
e 111 255
e 111 573
e 111 726
e 111 446
e 113 208
e 113 470
e 113 360
e 113 797
e 114 412
e 114 931
e 114 181
e 114 493
e 114 576
e 115 951
e 115 781
e 115 516
e 117 616
e 117 934
e 118 765
e 118 457
e 118 892
e 118 292
e 119 927
e 119 715
e 119 667
e 119 584
e 119 334
e 119 915
e 119 942
e 120 460
e 120 841
e 120 485
e 120 675
e 120 821
e 120 323
e 121 631
e 121 956
e 121 520
e 121 380
e 121 648
e 121 809
e 122 452
e 122 489
e 122 636
e 123 414
e 123 861
e 123 812
e 123 514
e 125 836
e 125 481
e 125 947
e 125 460
e 125 545
e 125 683
e 125 963
e 126 208
e 126 869
e 126 132
e 127 961
e 127 737
e 127 688
e 127 483
e 127 216
e 128 386
e 128 545
e 128 990
e 128 147
e 128 210
e 131 880
e 131 567
e 131 369
e 132 667
e 132 458
e 132 197
e 133 932
e 133 388
e 133 838
e 133 282
e 133 255
e 134 845
e 134 454
e 134 147
e 134 390
e 134 249
e 136 454
e 136 669
e 136 808
e 136 665
e 136 971
e 137 170
e 137 167
e 137 409
e 137 316
e 137 232
e 138 331
e 138 626
e 138 638
e 138 615
e 138 233
e 138 978
e 138 895
e 138 275
e 139 910
e 139 821
e 139 263
e 139 942
e 140 590
e 140 974
e 140 318
e 140 231
e 140 538
e 140 602
e 140 453
e 141 267
e 141 559
e 141 983
e 141 722
e 142 486
e 142 819
e 143 430
e 143 740
e 143 626
e 147 220
e 147 788
e 148 292
e 148 624
e 148 669
e 148 276
e 148 910
e 149 846
e 149 569
e 149 565
e 149 350
e 150 941
e 150 860
e 150 667
e 152 872
e 152 387
e 152 288
e 152 262
e 152 761
e 152 949
e 153 404
e 153 457
e 153 207
e 154 972
e 154 950
e 154 740
e 154 983
e 154 671
e 154 854
e 155 710
e 155 705
e 155 662
e 155 956
e 157 883
e 157 289
e 157 803
e 157 225
e 157 952
e 158 683
e 158 680
e 158 283
e 158 520
e 158 417
e 158 404
e 159 192
e 159 631
e 159 991
e 159 516
e 159 319
e 160 598
e 160 762
e 160 785
e 160 769
e 160 509
e 160 371
e 161 609
e 161 840
e 161 278
e 161 610
e 161 336
e 162 596
e 162 254
e 164 766
e 164 853
e 164 809
e 166 970
e 166 745
e 166 775
e 167 648
e 167 618
e 168 968
e 168 560
e 168 289
e 168 568
e 168 915
e 168 264
e 169 981
e 169 496
e 169 363
e 169 234
e 169 760
e 169 732
e 169 914
e 170 597
e 170 424
e 170 925
e 171 173
e 171 463
e 171 272
e 171 738
e 172 631
e 172 539
e 172 355
e 173 501
e 173 590
e 173 588
e 173 968
e 173 344
e 173 679
e 173 192
e 174 810
e 174 485
e 174 364
e 174 821
e 174 248
e 178 862
e 178 840
e 178 318
e 178 385
e 178 588
e 178 778
e 179 999
e 179 235
e 179 671
e 180 565
e 180 898
e 180 687
e 180 252
e 180 420
e 180 258
e 181 665
e 181 854
e 183 382
e 183 500
e 183 323
e 183 715
e 183 828
e 183 817
e 184 389
e 184 805
e 184 704
e 185 329
e 185 806
e 185 881
e 186 793
e 186 636
e 186 210
e 188 463
e 188 564
e 188 203
e 188 978
e 188 957
e 189 940
e 189 855
e 189 454
e 189 874
e 189 216
e 190 383
e 190 897
e 191 564
e 191 328
e 191 843
e 191 247
e 191 812
e 191 844
e 192 437
e 192 902
e 192 291
e 192 907
e 193 951
e 193 691
e 193 433
e 193 953
e 193 355
e 193 532
e 194 214
e 194 460
e 194 378
e 194 825
e 194 268
e 194 452
e 194 840
e 196 853
e 196 338
e 196 999
e 196 776
e 197 797
e 197 968
e 199 206
e 199 422
e 199 446
e 200 578
e 200 432
e 200 782
e 201 524
e 201 574
e 201 605
e 201 913
e 202 736
e 202 996
e 203 259
e 203 312
e 203 810
e 203 594
e 203 297
e 204 725
e 204 937
e 204 242
e 204 762
e 204 327
e 204 716
e 204 671
e 206 782
e 207 417
e 207 892
e 207 447
e 207 917
e 208 786
e 208 828
e 208 229
e 208 265
e 208 336
e 208 369
e 208 817
e 209 708
e 209 369
e 209 898
e 209 904
e 209 885
e 210 277
e 213 820
e 213 757
e 213 903
e 213 712
e 214 257
e 214 419
e 214 497
e 214 250
e 215 321
e 215 894
e 215 828
e 215 342
e 215 390
e 216 711
e 217 226
e 217 251
e 217 925
e 217 457
e 217 789
e 217 964
e 217 492
e 217 670
e 218 905
e 218 950
e 218 303
e 218 307
e 218 300
e 218 297
e 218 514
e 219 375
e 219 601
e 219 426
e 219 568
e 219 428
e 220 284
e 220 335
e 220 853
e 221 577
e 221 638
e 221 941
e 221 806
e 221 486
e 221 627
e 225 227
e 225 951
e 226 781
e 226 507
e 227 517
e 229 337
e 229 598
e 230 426
e 230 287
e 231 492
e 231 587
e 231 516
e 232 634
e 233 641
e 233 805
e 234 597
e 234 974
e 235 766
e 235 950
e 235 359
e 235 352
e 237 848
e 237 944
e 237 604
e 238 338
e 238 621
e 238 905
e 242 977
e 242 484
e 243 428
e 243 330
e 243 828
e 243 318
e 243 992
e 246 866
e 246 471
e 246 600
e 247 383
e 247 366
e 248 516
e 248 420
e 248 353
e 248 838
e 249 929
e 249 633
e 250 430
e 250 652
e 251 877
e 251 968
e 251 815
e 251 640
e 252 298
e 252 288
e 252 523
e 253 513
e 253 841
e 253 600
e 254 409
e 254 556
e 256 388
e 256 685
e 256 663
e 257 357
e 258 338
e 258 408
e 258 670
e 258 384
e 259 907
e 259 932
e 259 369
e 260 974
e 260 497
e 260 933
e 261 272
e 261 550
e 261 979
e 261 478
e 261 618
e 261 647
e 262 570
e 262 712
e 263 589
e 263 580
e 263 446
e 264 918
e 264 819
e 264 695
e 265 619
e 265 445
e 267 676
e 267 578
e 267 384
e 268 938
e 268 787
e 272 320
e 272 582
e 272 479
e 273 687
e 273 700
e 273 394
e 273 607
e 275 761
e 275 340
e 275 736
e 276 861
e 276 487
e 276 448
e 277 704
e 277 748
e 277 345
e 277 949
e 277 972
e 278 819
e 278 818
e 278 989
e 279 680
e 279 810
e 279 597
e 279 839
e 279 589
e 279 963
e 279 393
e 280 624
e 280 419
e 280 368
e 280 632
e 282 537
e 282 526
e 282 364
e 282 895
e 283 437
e 283 402
e 284 479
e 284 503
e 285 985
e 285 976
e 285 336
e 285 667
e 286 997
e 286 332
e 287 293
e 287 614
e 287 897
e 288 852
e 288 471
e 288 643
e 289 784
e 289 302
e 290 498
e 290 448
e 290 685
e 291 779
e 291 565
e 291 871
e 292 892
e 292 793
e 292 522
e 292 843
e 293 481
e 293 895
e 293 977
e 293 958
e 293 472
e 294 649
e 294 705
e 294 804
e 294 845
e 295 307
e 295 914
e 295 436
e 295 706
e 296 911
e 296 465
e 297 702
e 297 926
e 297 615
e 297 630
e 298 414
e 298 420
e 300 360
e 300 526
e 300 394
e 300 562
e 300 777
e 300 503
e 302 753
e 302 422
e 302 725
e 303 504
e 303 513
e 303 472
e 306 994
e 306 420
e 306 681
e 306 647
e 307 441
e 307 804
e 307 648
e 307 598
e 309 350
e 309 778
e 309 378
e 309 647
e 309 941
e 309 579
e 312 683
e 312 740
e 312 444
e 312 531
e 316 624
e 316 629
e 318 607
e 318 327
e 318 486
e 319 990
e 319 327
e 320 562
e 320 976
e 320 631
e 320 357
e 320 451
e 321 455
e 321 630
e 321 901
e 321 409
e 321 432
e 321 989
e 323 836
e 323 583
e 323 491
e 323 749
e 326 838
e 326 829
e 326 749
e 327 750
e 327 641
e 327 382
e 328 331
e 328 421
e 329 608
e 329 818
e 329 485
e 331 612
e 332 885
e 332 812
e 332 829
e 334 937
e 334 673
e 335 810
e 335 853
e 336 937
e 336 458
e 337 663
e 337 944
e 337 736
e 339 861
e 339 767
e 339 655
e 340 520
e 340 388
e 340 598
e 340 985
e 341 756
e 342 470
e 342 990
e 342 411
e 344 627
e 344 788
e 344 829
e 344 633
e 345 584
e 345 966
e 345 562
e 345 547
e 345 563
e 345 962
e 347 395
e 347 477
e 347 524
e 348 996
e 348 648
e 348 638
e 350 440
e 350 669
e 350 903
e 352 428
e 352 661
e 352 730
e 352 502
e 353 990
e 353 442
e 354 896
e 354 792
e 354 571
e 355 877
e 355 717
e 355 648
e 355 691
e 357 495
e 357 655
e 359 498
e 359 428
e 359 547
e 359 537
e 359 362
e 359 422
e 359 799
e 359 867
e 359 792
e 360 496
e 360 509
e 360 436
e 362 607
e 362 617
e 363 547
e 363 584
e 363 986
e 363 662
e 364 754
e 364 372
e 364 819
e 364 713
e 366 796
e 366 863
e 366 741
e 367 851
e 367 732
e 367 657
e 367 640
e 368 411
e 368 422
e 368 513
e 368 711
e 369 979
e 369 559
e 369 756
e 369 783
e 371 852
e 371 434
e 371 783
e 371 693
e 371 511
e 371 699
e 372 440
e 372 381
e 372 943
e 372 601
e 372 910
e 374 903
e 374 629
e 374 767
e 374 619
e 375 705
e 375 673
e 376 595
e 376 613
e 376 848
e 378 531
e 378 586
e 378 477
e 379 631
e 379 391
e 379 748
e 380 476
e 380 769
e 380 655
e 380 819
e 380 631
e 381 569
e 382 688
e 382 557
e 382 855
e 383 667
e 383 711
e 383 501
e 383 858
e 384 432
e 384 857
e 385 802
e 385 861
e 386 884
e 386 387
e 386 526
e 387 872
e 387 562
e 387 391
e 388 597
e 388 442
e 388 409
e 388 425
e 389 718
e 389 791
e 389 854
e 389 927
e 390 963
e 390 961
e 390 915
e 390 904
e 391 828
e 391 932
e 392 934
e 392 532
e 392 914
e 392 996
e 392 832
e 393 594
e 393 927
e 394 900
e 395 703
e 395 876
e 395 651
e 395 632
e 396 554
e 396 602
e 396 938
e 396 917
e 396 757
e 396 922
e 398 720
e 398 853
e 402 610
e 402 965
e 402 843
e 402 927
e 402 468
e 402 765
e 403 997
e 403 895
e 403 595
e 405 918
e 405 406
e 405 504
e 406 679
e 406 638
e 406 608
e 408 787
e 408 722
e 410 505
e 410 837
e 410 692
e 411 672
e 411 797
e 412 760
e 412 664
e 412 492
e 412 820
e 413 455
e 413 761
e 413 700
e 413 742
e 413 976
e 413 724
e 413 651
e 414 546
e 415 690
e 415 825
e 415 501
e 415 472
e 417 672
e 417 683
e 418 596
e 419 701
e 419 887
e 419 863
e 420 665
e 420 635
e 421 761
e 422 804
e 422 431
e 423 748
e 423 737
e 423 687
e 423 470
e 424 877
e 424 953
e 424 798
e 425 683
e 425 693
e 425 714
e 426 783
e 426 848
e 426 468
e 428 836
e 428 479
e 430 562
e 430 716
e 431 711
e 431 462
e 431 582
e 432 812
e 432 970
e 432 751
e 432 718
e 433 971
e 433 974
e 433 605
e 433 931
e 434 902
e 434 846
e 436 943
e 437 898
e 439 970
e 439 948
e 439 480
e 440 770
e 440 643
e 440 971
e 441 871
e 441 559
e 441 940
e 442 993
e 442 478
e 442 843
e 442 675
e 442 449
e 442 789
e 442 501
e 443 848
e 443 837
e 443 819
e 443 996
e 443 635
e 444 574
e 444 757
e 444 483
e 445 585
e 445 744
e 446 991
e 446 903
e 447 562
e 447 613
e 447 824
e 447 830
e 447 713
e 447 872
e 448 755
e 448 663
e 448 782
e 449 603
e 449 870
e 451 848
e 451 997
e 452 530
e 452 480
e 452 453
e 452 569
e 452 663
e 453 802
e 453 539
e 454 963
e 454 690
e 455 939
e 455 965
e 456 831
e 456 786
e 458 939
e 458 496
e 460 745
e 460 722
e 460 744
e 460 775
e 462 479
e 462 582
e 462 938
e 462 612
e 463 820
e 463 790
e 463 948
e 463 770
e 465 577
e 465 699
e 465 835
e 465 679
e 468 688
e 468 621
e 470 563
e 470 817
e 471 863
e 472 824
e 472 676
e 472 664
e 473 755
e 473 539
e 473 913
e 474 717
e 474 545
e 474 923
e 474 939
e 476 683
e 476 681
e 477 958
e 477 661
e 477 725
e 478 716
e 478 855
e 478 821
e 479 493
e 479 546
e 480 722
e 480 832
e 481 786
e 481 886
e 481 720
e 483 594
e 483 653
e 483 504
e 483 933
e 483 980
e 484 516
e 484 749
e 485 925
e 485 825
e 485 718
e 485 955
e 486 504
e 487 770
e 487 934
e 489 886
e 489 600
e 493 494
e 493 665
e 494 503
e 494 951
e 494 560
e 495 666
e 495 899
e 495 792
e 496 568
e 496 867
e 497 618
e 498 820
e 498 631
e 498 821
e 499 883
e 499 957
e 499 854
e 499 524
e 500 974
e 500 871
e 500 931
e 501 603
e 502 767
e 502 964
e 502 615
e 502 785
e 502 760
e 503 869
e 504 702
e 505 881
e 505 754
e 505 584
e 506 753
e 506 944
e 506 578
e 507 981
e 507 548
e 509 748
e 509 782
e 509 867
e 511 832
e 511 892
e 511 803
e 513 877
e 514 532
e 516 632
e 516 761
e 516 913
e 516 553
e 517 531
e 517 610
e 517 908
e 517 779
e 520 695
e 521 933
e 521 720
e 521 817
e 522 775
e 522 726
e 522 843
e 523 918
e 523 706
e 523 766
e 526 797
e 526 885
e 526 712
e 527 568
e 527 935
e 530 634
e 530 965
e 531 871
e 532 955
e 532 550
e 537 829
e 537 785
e 537 711
e 537 822
e 538 846
e 539 785
e 539 588
e 539 566
e 539 672
e 545 927
e 546 891
e 546 666
e 546 964
e 547 647
e 547 899
e 548 838
e 548 825
e 548 824
e 548 943
e 549 679
e 549 774
e 550 907
e 550 680
e 551 918
e 551 624
e 552 619
e 552 892
e 553 954
e 553 937
e 553 806
e 554 615
e 554 595
e 555 930
e 555 666
e 555 968
e 556 827
e 557 607
e 557 900
e 558 672
e 558 974
e 558 949
e 559 877
e 559 602
e 560 908
e 560 666
e 562 927
e 562 972
e 563 874
e 563 975
e 564 937
e 565 788
e 565 837
e 566 993
e 566 765
e 567 616
e 568 663
e 568 673
e 569 789
e 570 930
e 570 617
e 571 578
e 571 857
e 571 815
e 573 728
e 573 772
e 574 975
e 574 733
e 574 863
e 574 907
e 575 645
e 575 589
e 576 692
e 576 751
e 576 964
e 576 775
e 577 777
e 577 997
e 577 771
e 578 852
e 579 719
e 580 835
e 580 803
e 580 986
e 582 632
e 582 822
e 583 966
e 583 609
e 584 676
e 585 755
e 585 915
e 585 742
e 585 666
e 586 725
e 587 867
e 587 894
e 589 791
e 589 845
e 590 796
e 594 615
e 594 978
e 595 603
e 595 845
e 597 716
e 598 998
e 598 853
e 600 708
e 601 761
e 602 863
e 602 955
e 603 937
e 603 756
e 604 705
e 604 606
e 604 701
e 605 999
e 605 749
e 605 725
e 605 810
e 606 662
e 606 892
e 607 798
e 607 886
e 607 970
e 609 714
e 609 692
e 610 896
e 610 891
e 612 877
e 612 754
e 613 805
e 613 904
e 614 944
e 614 792
e 615 735
e 615 838
e 616 798
e 619 839
e 621 913
e 621 935
e 626 904
e 627 673
e 629 719
e 630 739
e 630 877
e 630 727
e 631 848
e 631 649
e 631 999
e 632 745
e 632 964
e 633 986
e 633 765
e 634 839
e 634 907
e 635 852
e 635 808
e 635 840
e 636 641
e 637 761
e 637 998
e 637 751
e 637 896
e 637 830
e 640 681
e 643 815
e 645 979
e 647 670
e 647 940
e 648 767
e 648 695
e 648 991
e 649 663
e 651 863
e 651 902
e 652 781
e 652 762
e 653 771
e 653 881
e 655 722
e 655 706
e 657 905
e 657 663
e 657 705
e 657 715
e 657 964
e 661 756
e 661 810
e 661 954
e 662 841
e 662 938
e 663 846
e 663 851
e 664 923
e 664 725
e 664 753
e 665 703
e 665 744
e 665 679
e 666 757
e 667 761
e 667 684
e 669 884
e 670 775
e 670 970
e 671 733
e 672 804
e 675 817
e 676 730
e 679 748
e 681 910
e 684 759
e 684 944
e 684 692
e 685 871
e 685 880
e 686 832
e 688 785
e 688 769
e 690 887
e 691 756
e 692 988
e 692 989
e 695 791
e 699 890
e 700 733
e 700 701
e 700 757
e 701 815
e 701 836
e 701 894
e 702 767
e 702 730
e 703 935
e 703 844
e 704 781
e 704 720
e 705 790
e 708 791
e 710 990
e 710 793
e 710 745
e 713 994
e 714 940
e 715 866
e 715 929
e 717 855
e 717 751
e 718 871
e 719 972
e 722 766
e 723 797
e 723 771
e 724 951
e 725 900
e 725 754
e 726 989
e 726 926
e 727 824
e 727 830
e 728 929
e 730 759
e 733 785
e 733 880
e 735 742
e 738 778
e 738 975
e 739 891
e 739 862
e 739 917
e 740 841
e 741 863
e 741 989
e 742 827
e 744 986
e 745 828
e 745 974
e 749 881
e 749 990
e 750 965
e 750 755
e 751 963
e 753 874
e 756 942
e 757 784
e 759 959
e 759 911
e 765 770
e 766 804
e 766 860
e 770 877
e 770 881
e 771 810
e 771 802
e 772 998
e 774 822
e 775 974
e 775 822
e 776 907
e 776 874
e 777 828
e 778 784
e 778 806
e 778 844
e 779 876
e 779 871
e 781 902
e 784 872
e 785 977
e 786 956
e 787 841
e 789 802
e 789 872
e 790 794
e 791 890
e 792 902
e 794 892
e 794 866
e 798 799
e 799 959
e 802 959
e 803 917
e 803 843
e 804 972
e 806 831
e 806 957
e 806 981
e 808 955
e 810 832
e 810 976
e 810 974
e 818 892
e 820 891
e 822 837
e 824 927
e 827 979
e 831 944
e 831 952
e 832 932
e 835 910
e 837 904
e 840 961
e 840 938
e 843 892
e 845 874
e 851 895
e 853 881
e 855 992
e 857 977
e 867 926
e 870 926
e 871 934
e 872 988
e 881 884
e 885 999
e 892 970
e 897 999
e 900 986
e 901 911
e 902 962
e 908 922
e 908 978
e 910 991
e 910 977
e 911 981
e 913 986
e 917 957
e 917 959
e 922 962
e 923 970
e 938 974
e 938 965
e 944 986
e 950 955
e 953 980
e 954 977
e 956 976
e 958 988
e 965 971
e 966 976
